/*********************************************
 * OPL 22.1.0.0 Data
 * Author: samij
 * Creation Date: 13 févr. 2023 at 14:15:54
 *********************************************/

 Data = {<124,150000,73.3,500,20,3.5,5300,1200,7400,5300>,
 	<109,150000,52.9,450,20,4,4500,5400,6500,7200>,
 	<115,100000,65.4,550,16,3,4400,6700,12500,13200>};
 
 
 
